Max time = 7200.0
Tried aggregator 1 time.
MIP Presolve eliminated 5604 rows and 0 columns.
MIP Presolve modified 222 coefficients.
Reduced MIP has 2179 rows, 18798 columns, and 124260 nonzeros.
Reduced MIP has 18798 binaries, 0 generals, 0 SOSs, and 0 indicators.
Presolve time = 0.41 sec. (94.98 ticks)
Tried aggregator 1 time.
Reduced MIP has 2179 rows, 18798 columns, and 124260 nonzeros.
Reduced MIP has 18798 binaries, 0 generals, 0 SOSs, and 0 indicators.
Presolve time = 0.21 sec. (50.07 ticks)
Probing time = 0.31 sec. (7.47 ticks)
Clique table members: 21137.
MIP emphasis: balance optimality and feasibility.
MIP search method: dynamic search.
Parallel mode: deterministic, using up to 4 threads.
Root relaxation solution time = 5.12 sec. (1080.26 ticks)

        Nodes                                         Cuts/
   Node  Left     Objective  IInf  Best Integer    Best Bound    ItCnt     Gap

      0     0       22.0000  1966                     22.0000        0         
      0     2       22.0000  1285                     22.0000    11250         
Elapsed time = 231.99 sec. (42158.61 ticks, tree = 0.01 MB, solutions = 0)
      1     3       22.0000  1640                     22.0000    24465         
      2     3       22.0000  1629                     22.0000    25468         
      3     4       22.0000  1388                     22.0000    33708         
      5     7       22.0000  1773                     22.0000    57572         
      8     6       22.0000  1660                     22.0000    56994         
      9     9       22.0000  1536                     22.0000    76140         
     11     8       22.0000  1587                     22.0000    67140         
     12    11       22.0000  1796                     22.0000    94786         
     13    13       22.0000  1604                     22.0000   113998         
     16    16       22.0000  1495                     22.0000   141902         
Elapsed time = 449.58 sec. (78345.82 ticks, tree = 0.03 MB, solutions = 0)
     17    17       22.0000  1575                     22.0000   152201         
     20    19       22.0000  1526                     22.0000   171972         
     21    21       22.0000  1633                     22.0000   192584         
     24    23       22.0000  1658                     22.0000   212498         
     26    24       22.0000  1709                     22.0000   221143         
     29    27       22.0000  1508                     22.0000   250621         
     30    26       22.0000  1541                     22.0000   239523         
     31    29       22.0000  1573                     22.0000   268297         
     33    28       22.0000  1476                     22.0000   251841         
     34    31       22.0000  1762                     22.0000   289755         
Elapsed time = 627.68 sec. (104364.01 ticks, tree = 0.20 MB, solutions = 0)
     37    34       22.0000  1570                     22.0000   301493         
     39    35       22.0000  1485                     22.0000   302348         
     43    37       22.0000  1393                     22.0000   306406         
     47    39       22.0000  1284                     22.0000   311031         
     50    48       22.0000  1228                     22.0000   351346         
     52    50       22.0000  1148                     22.0000   357006         
     55    42       22.0000  1599                     22.0000   325600         
     58    43       22.0000  1593                     22.0000   337995         
     61    50    infeasible                           22.0000   362463         
     67    45       22.0000  1517                     22.0000   342279         
Elapsed time = 708.03 sec. (116433.00 ticks, tree = 0.46 MB, solutions = 0)
     72    47       22.0000  1469                     22.0000   346217         
     77    57       22.0000  1628                     22.0000   366330         
     82    53    infeasible                           22.0000   390217         
     87    57       22.0000  1472                     22.0000   394837         
     91    61       22.0000  1583                     22.0000   373299         
     94    62       22.0000  1526                     22.0000   377553         
     98    64       22.0000  1485                     22.0000   381865         
    100    76       22.0000  1440                     22.0000   431029         
    105    70    infeasible                           22.0000   424314         
    109    71       22.0000  1080                     22.0000   429830         
Elapsed time = 775.62 sec. (128082.29 ticks, tree = 0.52 MB, solutions = 0)
    113    83       22.0000  1024                     22.0000   461923         
    120    84       22.0000   963                     22.0000   468143         
    126    82       22.0000  1216                     22.0000   456067         
    131    98       22.0000   994                     22.0000   496421         
    135   100       22.0000   870                     22.0000   503776         
    138   101       22.0000   801                     22.0000   509862         
    142    84       22.0000  1640                     22.0000   501888         
    144    86       22.0000  1552                     22.0000   505540         
    146   100       22.0000  1565                     22.0000   531984         
    148   102       22.0000  1497                     22.0000   535960         
Elapsed time = 851.24 sec. (139969.66 ticks, tree = 0.73 MB, solutions = 0)
    149   103       22.0000  1459                     22.0000   538753         
    150   101       22.0000   816                     22.0000   514243         
    153   106       22.0000  1653                     22.0000   570114         
    155   108       22.0000  1624                     22.0000   573499         
    157   110       22.0000  1577                     22.0000   577449         
    159    84       22.0000  1141                     22.0000   462767         
    162   113       22.0000  1519                     22.0000   582796         
    167   114       22.0000  1496                     22.0000   586664         
    172   122       22.0000   822                     22.0000   613589         
    176   121    infeasible                           22.0000   620276         
Elapsed time = 931.10 sec. (152283.96 ticks, tree = 0.84 MB, solutions = 0)
    180   124       22.0000  1258                     22.0000   623107         
    185   128       22.0000  1349                     22.0000   637009         
    189   128       22.0000  1241                     22.0000   629581         
    194   129       22.0000  1211                     22.0000   632609         
    198   131       22.0000  1152                     22.0000   635641         
    208   141    infeasible                           22.0000   675300         
    217   143       22.0000  1096                     22.0000   681386         
    225   154       22.0000  1245                     22.0000   692947         
    230   144       22.0000  1077                     22.0000   682243         
    237   143    infeasible                           22.0000   687526         
Elapsed time = 998.46 sec. (163189.15 ticks, tree = 1.24 MB, solutions = 0)
    246   141    infeasible                           22.0000   692818         
    257   156    infeasible                           22.0000   728145         
    269   162       24.0000   953                     22.0000   717325         
    280   142       22.0000   943                     22.0000   710606         
    287   142       22.0000  1213                     22.0000   671421         
    292   171       22.0000  1039                     22.0000   812387         
    301   173       22.0000  1100                     22.0000   767190         
    310   173    infeasible                           22.0000   771669         
    316   187       22.0000  1756                     22.0000   861698         
    322   175    infeasible                           22.0000   836479         
Elapsed time = 1060.90 sec. (174028.20 ticks, tree = 1.69 MB, solutions = 0)
    330   179       24.0000   898                     22.0000   788922         
    336   175    infeasible                           22.0000   850948         
    343   175    infeasible                           22.0000   859357         
    351   193       22.0000  1123                     22.0000   886663         
    360   196       22.0000  1091                     22.0000   891772         
    367   180    infeasible                           22.0000   830954         
    376   200    infeasible                           22.0000   960713         
    384   177       24.0000   863                     22.0000   897243         
    394   209       23.0526   961                     22.0000  1047613         
    404   204       22.0000  1428                     22.0000   924545         
Elapsed time = 1122.80 sec. (185022.59 ticks, tree = 1.89 MB, solutions = 0)
    413   208    infeasible                           22.0000  1059031         
    424   209       22.0000  1419                     22.0000   931312         
    435   210       22.0000  1371                     22.0000   935894         
    442   212       22.0000  1312                     22.0000   939700         
    445   206       22.0000  1549                     22.0000  1006609         
    450   233       22.0000  1218                     22.0000  1113465         
    454   206    infeasible                           22.0000  1016640         
    463   209       22.0000  1371                     22.0000  1020545         
    471   214       22.2000  1062                     22.0000  1085614         
    511   261    infeasible                           22.0000  1259450         
Elapsed time = 1213.06 sec. (199279.24 ticks, tree = 2.47 MB, solutions = 0)
    553   264       22.0000  1324                     22.0000  1277558         
    579   277       24.0000  1109                     22.0000  1292300         
    635   307       24.0000   560                     22.0000  1368137         
    687   354       22.2000  1301                     22.0000  1489063         
    732   365       24.0000   418                     22.0000  1428556         
    785   395       24.0000   239                     22.0000  1461957         
*   806+  459                           24.0000       22.0000             8.33%
    846   364       24.0000  1089       24.0000       22.0000  1526249    8.33%
    904   346       22.0000  1085       24.0000       22.0000  1788819    8.33%
    933   370    infeasible             24.0000       22.0000  1571932    8.33%
    962   348       22.0000  1227       24.0000       22.0000  1854728    8.33%
Elapsed time = 1426.63 sec. (238163.96 ticks, tree = 4.20 MB, solutions = 1)
    993   382       22.0000  1567       24.0000       22.0000  1954204    8.33%
   1018   391       22.0000  1056       24.0000       22.0000  1932225    8.33%
   1044   410       22.0000  1045       24.0000       22.0000  2067412    8.33%
   1086   375    infeasible             24.0000       22.0000  2060524    8.33%
   1117   445    infeasible             24.0000       22.0000  2210114    8.33%
   1152   452       22.0000  1435       24.0000       22.0000  2221760    8.33%
   1173   457       22.0556  1202       24.0000       22.0000  2236955    8.33%
   1198   470    infeasible             24.0000       22.0000  2320888    8.33%
   1232   472       22.0000  1443       24.0000       22.0000  2341414    8.33%
   1278   475       22.0000  1210       24.0000       22.0000  2323720    8.33%
Elapsed time = 1651.70 sec. (277469.52 ticks, tree = 5.69 MB, solutions = 1)
   1326   540       22.0000  1343       24.0000       22.0000  2500087    8.33%
   1356   550       22.0000  1148       24.0000       22.0000  2606702    8.33%
   1387   547       22.0000   918       24.0000       22.0000  2595722    8.33%
   1416   594       22.0000  1379       24.0000       22.0000  2761933    8.33%
   1446   584    infeasible             24.0000       22.0000  2710606    8.33%
   1476   579    infeasible             24.0000       22.0000  2687890    8.33%
   1515   632       22.0000   881       24.0000       22.0000  2945739    8.33%
   1559   622       22.2727  1054       24.0000       22.0000  2905802    8.33%
   1574   653       22.0000  1156       24.0000       22.0000  3035957    8.33%
   1599   657       22.0000  1123       24.0000       22.0000  3080468    8.33%
Elapsed time = 1897.37 sec. (316862.83 ticks, tree = 8.20 MB, solutions = 1)
   1621   660       22.0000  1211       24.0000       22.0000  3101258    8.33%
   1652   665       22.0000  1050       24.0000       22.0000  3117263    8.33%
   1692   684       22.0000  1011       24.0000       22.0000  3216405    8.33%
   1726   688    infeasible             24.0000       22.0000  3243035    8.33%
   1764   693       22.0714   960       24.0000       22.0000  3342239    8.33%
   1794   723       22.0000   934       24.0000       22.0000  3494708    8.33%
   1808   726    infeasible             24.0000       22.0000  3537070    8.33%
   1839   731    infeasible             24.0000       22.0000  3572602    8.33%
   1870   730       22.0000   962       24.0000       22.0000  3577718    8.33%
   1914   731    infeasible             24.0000       22.0000  3595469    8.33%
Elapsed time = 2113.91 sec. (356010.85 ticks, tree = 9.18 MB, solutions = 1)
   1963   750    infeasible             24.0000       22.0000  3781894    8.33%
   1998   757       22.3636   945       24.0000       22.0000  3801931    8.33%
   2046   785       22.0000  1200       24.0000       22.0000  3951626    8.33%
   2070   778    infeasible             24.0000       22.0000  4042020    8.33%
   2090   809       22.0000  1081       24.0000       22.0000  4063960    8.33%
   2142   779    infeasible             24.0000       22.0000  4099497    8.33%
   2177   830       22.0000  1311       24.0000       22.0000  4096824    8.33%
   2205   811    infeasible             24.0000       22.0000  4272870    8.33%
   2255   873       22.0000  1235       24.0000       22.0000  4297848    8.33%
   2284   878       22.0000   423       24.0000       22.0000  4491126    8.33%
Elapsed time = 2332.71 sec. (395826.41 ticks, tree = 10.54 MB, solutions = 1)
   2311   890       22.0000   358       24.0000       22.0000  4519060    8.33%
*  2316+  837                           22.0000       22.0000             0.00%
   2324   870       22.3825   950       22.0000       22.0000  4568357    0.00%
   2366   864    infeasible             22.0000       22.0000  4677028    0.00%
   2387   903       22.0000   815       22.0000       22.0000  4773171    0.00%

Root node processing (before b&c):
  Real time             =  230.00 sec. (41802.67 ticks)
Parallel b&c, 4 threads:
  Real time             = 2179.69 sec. (370944.43 ticks)
  Sync time (average)   =  108.34 sec.
  Wait time (average)   =    0.01 sec.
                          ------------
Total (root+branch&cut) = 2409.68 sec. (412747.10 ticks)
P#11 = 1.0
P#28 = 1.0
P#41 = 1.0
P#46 = 1.0
P#53 = 1.0
P#55 = 1.0
P#62 = 1.0
P#71 = 1.0
P#84 = 1.0
P#101 = 1.0
P#111 = 1.0
P#112 = 1.0
P#122 = 1.0
P#139 = 1.0
P#152 = 1.0
P#161 = 1.0
P#168 = 1.0
P#170 = 1.0
P#177 = 1.0
P#182 = 1.0
P#195 = 1.0
P#212 = 1.0
P#167 = 1.0
P#56 = 1.0
X#1#122 = 1.0
X#2#168 = 1.0
X#3#139 = 1.0
X#4#112 = 1.0
X#5#182 = 1.0
X#6#55 = 1.0
X#7#177 = 1.0
X#8#11 = 1.0
X#9#167 = 1.0
X#10#161 = 1.0
X#11#170 = 1.0
X#12#71 = 1.0
X#13#212 = 1.0
X#14#56 = 1.0
X#15#101 = 1.0
X#16#41 = 1.0
X#17#111 = 1.0
X#18#28 = 1.0
X#19#195 = 1.0
X#20#62 = 1.0
X#21#152 = 1.0
X#22#53 = 1.0
X#23#46 = 1.0
X#24#84 = 1.0
L#1#1 = 1.0
F#1#24#1 = 1.0
L#1#3 = 1.0
F#1#4#3 = 1.0
L#1#6 = 1.0
F#1#19#6 = 1.0
L#1#8 = 1.0
F#1#5#8 = 1.0
L#1#10 = 1.0
F#1#21#10 = 1.0
L#1#12 = 1.0
F#1#7#12 = 1.0
L#1#14 = 1.0
F#1#17#14 = 1.0
L#1#16 = 1.0
F#1#15#16 = 1.0
L#1#18 = 1.0
F#1#16#18 = 1.0
L#1#20 = 1.0
F#1#8#20 = 1.0
L#1#22 = 1.0
F#1#23#22 = 1.0
L#2#1 = 1.0
F#2#23#1 = 1.0
L#2#3 = 1.0
F#2#24#3 = 1.0
L#2#5 = 1.0
F#2#18#5 = 1.0
L#2#7 = 1.0
F#2#12#7 = 1.0
L#2#9 = 1.0
F#2#22#9 = 1.0
L#2#11 = 1.0
F#2#1#11 = 1.0
L#2#13 = 1.0
F#2#13#13 = 1.0
L#2#15 = 1.0
F#2#19#15 = 1.0
L#2#17 = 1.0
F#2#10#17 = 1.0
L#2#19 = 1.0
F#2#7#19 = 1.0
L#2#21 = 1.0
F#2#11#21 = 1.0
L#2#22 = 1.0
F#2#9#22 = 1.0
L#3#1 = 1.0
F#3#22#1 = 1.0
L#3#3 = 1.0
F#3#23#3 = 1.0
L#3#5 = 1.0
F#3#14#5 = 1.0
L#3#7 = 1.0
F#3#1#7 = 1.0
L#3#10 = 1.0
F#3#5#10 = 1.0
L#3#12 = 1.0
F#3#21#12 = 1.0
L#3#14 = 1.0
F#3#9#14 = 1.0
L#3#16 = 1.0
F#3#2#16 = 1.0
L#3#18 = 1.0
F#3#18#18 = 1.0
L#3#20 = 1.0
F#3#24#20 = 1.0
L#3#22 = 1.0
F#3#16#22 = 1.0
L#4#1 = 1.0
F#4#6#1 = 1.0
L#4#4 = 1.0
F#4#13#4 = 1.0
L#4#6 = 1.0
F#4#7#6 = 1.0
L#4#8 = 1.0
F#4#3#8 = 1.0
L#4#10 = 1.0
F#4#11#10 = 1.0
L#4#12 = 1.0
F#4#2#12 = 1.0
L#4#14 = 1.0
F#4#8#14 = 1.0
L#4#16 = 1.0
F#4#18#16 = 1.0
L#4#18 = 1.0
F#4#15#18 = 1.0
L#4#20 = 1.0
F#4#23#20 = 1.0
L#4#22 = 1.0
F#4#20#22 = 1.0
L#5#1 = 1.0
F#5#16#1 = 1.0
L#5#3 = 1.0
F#5#6#3 = 1.0
L#5#5 = 1.0
F#5#20#5 = 1.0
L#5#7 = 1.0
F#5#22#7 = 1.0
L#5#9 = 1.0
F#5#4#9 = 1.0
L#5#11 = 1.0
F#5#13#11 = 1.0
L#5#13 = 1.0
F#5#21#13 = 1.0
L#5#14 = 1.0
F#5#7#14 = 1.0
L#5#16 = 1.0
F#5#17#16 = 1.0
L#5#18 = 1.0
F#5#11#18 = 1.0
L#5#20 = 1.0
F#5#2#20 = 1.0
L#5#22 = 1.0
F#5#24#22 = 1.0
L#6#2 = 1.0
F#6#13#2 = 1.0
L#6#4 = 1.0
F#6#3#4 = 1.0
L#6#6 = 1.0
F#6#21#6 = 1.0
L#6#8 = 1.0
F#6#10#8 = 1.0
L#6#10 = 1.0
F#6#2#10 = 1.0
L#6#12 = 1.0
F#6#9#12 = 1.0
L#6#14 = 1.0
F#6#24#14 = 1.0
L#6#16 = 1.0
F#6#16#16 = 1.0
L#6#18 = 1.0
F#6#12#18 = 1.0
L#6#20 = 1.0
F#6#22#20 = 1.0
L#6#23 = 1.0
F#6#1#23 = 1.0
L#7#1 = 1.0
F#7#18#1 = 1.0
L#7#3 = 1.0
F#7#12#3 = 1.0
L#7#5 = 1.0
F#7#16#5 = 1.0
L#7#7 = 1.0
F#7#6#7 = 1.0
L#7#9 = 1.0
F#7#14#9 = 1.0
L#7#11 = 1.0
F#7#3#11 = 1.0
L#7#13 = 1.0
F#7#19#13 = 1.0
L#7#15 = 1.0
F#7#21#15 = 1.0
L#7#16 = 1.0
F#7#10#16 = 1.0
L#7#18 = 1.0
F#7#8#18 = 1.0
L#7#20 = 1.0
F#7#15#20 = 1.0
L#7#22 = 1.0
F#7#17#22 = 1.0
L#8#2 = 1.0
F#8#11#2 = 1.0
L#8#4 = 1.0
F#8#17#4 = 1.0
L#8#7 = 1.0
F#8#18#7 = 1.0
L#8#9 = 1.0
F#8#20#9 = 1.0
L#8#11 = 1.0
F#8#14#11 = 1.0
L#8#13 = 1.0
F#8#22#13 = 1.0
L#8#15 = 1.0
F#8#13#15 = 1.0
L#8#17 = 1.0
F#8#3#17 = 1.0
L#8#19 = 1.0
F#8#6#19 = 1.0
L#8#21 = 1.0
F#8#5#21 = 1.0
L#8#23 = 1.0
F#8#2#23 = 1.0
L#9#1 = 1.0
F#9#17#1 = 1.0
L#9#3 = 1.0
F#9#8#3 = 1.0
L#9#5 = 1.0
F#9#24#5 = 1.0
L#9#7 = 1.0
F#9#23#7 = 1.0
L#9#9 = 1.0
F#9#16#9 = 1.0
L#9#11 = 1.0
F#9#22#11 = 1.0
L#9#13 = 1.0
F#9#4#13 = 1.0
L#9#15 = 1.0
F#9#1#15 = 1.0
L#9#17 = 1.0
F#9#5#17 = 1.0
L#9#19 = 1.0
F#9#19#19 = 1.0
L#9#21 = 1.0
F#9#21#21 = 1.0
L#9#23 = 1.0
F#9#7#23 = 1.0
L#10#1 = 1.0
F#10#12#1 = 1.0
L#10#3 = 1.0
F#10#20#3 = 1.0
L#10#5 = 1.0
F#10#22#5 = 1.0
L#10#7 = 1.0
F#10#13#7 = 1.0
L#10#9 = 1.0
F#10#1#9 = 1.0
L#10#11 = 1.0
F#10#4#11 = 1.0
L#10#13 = 1.0
F#10#3#13 = 1.0
L#10#15 = 1.0
F#10#5#15 = 1.0
L#10#18 = 1.0
F#10#9#18 = 1.0
L#10#20 = 1.0
F#10#17#20 = 1.0
L#10#22 = 1.0
F#10#8#22 = 1.0
L#11#1 = 1.0
F#11#15#1 = 1.0
L#11#3 = 1.0
F#11#16#3 = 1.0
L#11#5 = 1.0
F#11#12#5 = 1.0
L#11#7 = 1.0
F#11#20#7 = 1.0
L#11#9 = 1.0
F#11#6#9 = 1.0
L#11#11 = 1.0
F#11#23#11 = 1.0
L#11#13 = 1.0
F#11#1#13 = 1.0
L#11#15 = 1.0
F#11#3#15 = 1.0
L#11#17 = 1.0
F#11#7#17 = 1.0
L#11#19 = 1.0
F#11#10#19 = 1.0
L#11#20 = 1.0
F#11#9#20 = 1.0
L#11#22 = 1.0
F#11#18#22 = 1.0
L#12#2 = 1.0
F#12#3#2 = 1.0
L#12#4 = 1.0
F#12#5#4 = 1.0
L#12#6 = 1.0
F#12#8#6 = 1.0
L#12#8 = 1.0
F#12#9#8 = 1.0
L#12#10 = 1.0
F#12#24#10 = 1.0
L#12#12 = 1.0
F#12#15#12 = 1.0
L#12#13 = 1.0
F#12#16#13 = 1.0
L#12#15 = 1.0
F#12#23#15 = 1.0
L#12#17 = 1.0
F#12#1#17 = 1.0
L#12#19 = 1.0
F#12#13#19 = 1.0
L#12#21 = 1.0
F#12#19#21 = 1.0
L#12#23 = 1.0
F#12#4#23 = 1.0
L#13#1 = 1.0
F#13#20#1 = 1.0
L#13#3 = 1.0
F#13#14#3 = 1.0
L#13#5 = 1.0
F#13#1#5 = 1.0
L#13#6 = 1.0
F#13#3#6 = 1.0
L#13#8 = 1.0
F#13#19#8 = 1.0
L#13#10 = 1.0
F#13#7#10 = 1.0
L#13#12 = 1.0
F#13#11#12 = 1.0
L#13#14 = 1.0
F#13#15#14 = 1.0
L#13#16 = 1.0
F#13#9#16 = 1.0
L#13#18 = 1.0
F#13#17#18 = 1.0
L#13#20 = 1.0
F#13#16#20 = 1.0
L#13#22 = 1.0
F#13#22#22 = 1.0
L#14#2 = 1.0
F#14#4#2 = 1.0
L#14#4 = 1.0
F#14#1#4 = 1.0
L#14#6 = 1.0
F#14#5#6 = 1.0
L#14#8 = 1.0
F#14#11#8 = 1.0
L#14#10 = 1.0
F#14#9#10 = 1.0
L#14#12 = 1.0
F#14#10#12 = 1.0
L#14#14 = 1.0
F#14#2#14 = 1.0
L#14#16 = 1.0
F#14#24#16 = 1.0
L#14#18 = 1.0
F#14#23#18 = 1.0
L#14#20 = 1.0
F#14#12#20 = 1.0
L#14#22 = 1.0
F#14#6#22 = 1.0
L#15#2 = 1.0
F#15#9#2 = 1.0
L#15#4 = 1.0
F#15#2#4 = 1.0
L#15#5 = 1.0
F#15#8#5 = 1.0
L#15#7 = 1.0
F#15#16#7 = 1.0
L#15#9 = 1.0
F#15#23#9 = 1.0
L#15#11 = 1.0
F#15#20#11 = 1.0
L#15#13 = 1.0
F#15#6#13 = 1.0
L#15#15 = 1.0
F#15#14#15 = 1.0
L#15#17 = 1.0
F#15#21#17 = 1.0
L#15#19 = 1.0
F#15#3#19 = 1.0
L#15#21 = 1.0
F#15#10#21 = 1.0
L#15#23 = 1.0
F#15#5#23 = 1.0
L#16#2 = 1.0
F#16#21#2 = 1.0
L#16#4 = 1.0
F#16#10#4 = 1.0
L#16#6 = 1.0
F#16#2#6 = 1.0
L#16#8 = 1.0
F#16#17#8 = 1.0
L#16#10 = 1.0
F#16#8#10 = 1.0
L#16#12 = 1.0
F#16#18#12 = 1.0
L#16#15 = 1.0
F#16#20#15 = 1.0
L#16#17 = 1.0
F#16#4#17 = 1.0
L#16#19 = 1.0
F#16#22#19 = 1.0
L#16#21 = 1.0
F#16#14#21 = 1.0
L#16#23 = 1.0
F#16#19#23 = 1.0
L#17#2 = 1.0
F#17#2#2 = 1.0
L#17#3 = 1.0
F#17#15#3 = 1.0
L#17#5 = 1.0
F#17#23#5 = 1.0
L#17#7 = 1.0
F#17#24#7 = 1.0
L#17#9 = 1.0
F#17#12#9 = 1.0
L#17#11 = 1.0
F#17#6#11 = 1.0
L#17#13 = 1.0
F#17#14#13 = 1.0
L#17#15 = 1.0
F#17#4#15 = 1.0
L#17#17 = 1.0
F#17#19#17 = 1.0
L#17#19 = 1.0
F#17#21#19 = 1.0
L#17#21 = 1.0
F#17#3#21 = 1.0
L#17#23 = 1.0
F#17#11#23 = 1.0
L#18#2 = 1.0
F#18#5#2 = 1.0
L#18#4 = 1.0
F#18#9#4 = 1.0
L#18#6 = 1.0
F#18#17#6 = 1.0
L#18#8 = 1.0
F#18#15#8 = 1.0
L#18#11 = 1.0
F#18#12#11 = 1.0
L#18#13 = 1.0
F#18#20#13 = 1.0
L#18#15 = 1.0
F#18#6#15 = 1.0
L#18#17 = 1.0
F#18#14#17 = 1.0
L#18#19 = 1.0
F#18#1#19 = 1.0
L#18#21 = 1.0
F#18#13#21 = 1.0
L#18#23 = 1.0
F#18#10#23 = 1.0
L#19#1 = 1.0
F#19#14#1 = 1.0
L#19#3 = 1.0
F#19#22#3 = 1.0
L#19#5 = 1.0
F#19#6#5 = 1.0
L#19#7 = 1.0
F#19#4#7 = 1.0
L#19#9 = 1.0
F#19#3#9 = 1.0
L#19#10 = 1.0
F#19#10#10 = 1.0
L#19#12 = 1.0
F#19#5#12 = 1.0
L#19#14 = 1.0
F#19#11#14 = 1.0
L#19#16 = 1.0
F#19#8#16 = 1.0
L#19#18 = 1.0
F#19#24#18 = 1.0
L#19#20 = 1.0
F#19#18#20 = 1.0
L#19#22 = 1.0
F#19#15#22 = 1.0
L#20#2 = 1.0
F#20#7#2 = 1.0
L#20#4 = 1.0
F#20#19#4 = 1.0
L#20#6 = 1.0
F#20#9#6 = 1.0
L#20#8 = 1.0
F#20#2#8 = 1.0
L#20#10 = 1.0
F#20#17#10 = 1.0
L#20#12 = 1.0
F#20#24#12 = 1.0
L#20#14 = 1.0
F#20#12#14 = 1.0
L#20#16 = 1.0
F#20#23#16 = 1.0
L#20#17 = 1.0
F#20#6#17 = 1.0
L#20#19 = 1.0
F#20#14#19 = 1.0
L#20#21 = 1.0
F#20#1#21 = 1.0
L#20#23 = 1.0
F#20#3#23 = 1.0
L#21#1 = 1.0
F#21#8#1 = 1.0
L#21#3 = 1.0
F#21#18#3 = 1.0
L#21#5 = 1.0
F#21#4#5 = 1.0
L#21#7 = 1.0
F#21#14#7 = 1.0
L#21#9 = 1.0
F#21#13#9 = 1.0
L#21#11 = 1.0
F#21#19#11 = 1.0
L#21#14 = 1.0
F#21#10#14 = 1.0
L#21#16 = 1.0
F#21#11#16 = 1.0
L#21#18 = 1.0
F#21#2#18 = 1.0
L#21#20 = 1.0
F#21#20#20 = 1.0
L#21#22 = 1.0
F#21#12#22 = 1.0
L#22#2 = 1.0
F#22#1#2 = 1.0
L#22#4 = 1.0
F#22#21#4 = 1.0
L#22#6 = 1.0
F#22#11#6 = 1.0
L#22#8 = 1.0
F#22#7#8 = 1.0
L#22#10 = 1.0
F#22#15#10 = 1.0
L#22#12 = 1.0
F#22#17#12 = 1.0
L#22#14 = 1.0
F#22#18#14 = 1.0
L#22#16 = 1.0
F#22#12#16 = 1.0
L#22#18 = 1.0
F#22#20#18 = 1.0
L#22#21 = 1.0
F#22#4#21 = 1.0
L#22#23 = 1.0
F#22#14#23 = 1.0
L#23#2 = 1.0
F#23#19#2 = 1.0
L#23#4 = 1.0
F#23#7#4 = 1.0
L#23#6 = 1.0
F#23#10#6 = 1.0
L#23#8 = 1.0
F#23#21#8 = 1.0
L#23#10 = 1.0
F#23#18#10 = 1.0
L#23#12 = 1.0
F#23#8#12 = 1.0
L#23#14 = 1.0
F#23#16#14 = 1.0
L#23#17 = 1.0
F#23#22#17 = 1.0
L#23#19 = 1.0
F#23#5#19 = 1.0
L#23#21 = 1.0
F#23#6#21 = 1.0
L#23#23 = 1.0
F#23#13#23 = 1.0
L#24#2 = 1.0
F#24#10#2 = 1.0
L#24#4 = 1.0
F#24#11#4 = 1.0
L#24#6 = 1.0
F#24#15#6 = 1.0
L#24#8 = 1.0
F#24#8#8 = 1.0
L#24#9 = 1.0
F#24#18#9 = 1.0
L#24#11 = 1.0
F#24#16#11 = 1.0
L#24#13 = 1.0
F#24#23#13 = 1.0
L#24#15 = 1.0
F#24#22#15 = 1.0
L#24#17 = 1.0
F#24#13#17 = 1.0
L#24#19 = 1.0
F#24#4#19 = 1.0
L#24#21 = 1.0
F#24#7#21 = 1.0
L#24#23 = 1.0
F#24#21#23 = 1.0
